200 1635
539 106 225 972 1474 384 130 1409 1195 256 1258 293 1362 665 202 466 864 914 1252 755 1175 200 907 86 1034 863 1615 21 1531 539 571 113 1224 382 831 218 1303 689 804 574 273 527 1363 780 250 1077 1071 1186 1423 1108 1505 1536 1624 528 1355 1614 517 45 938 987 1531 1388 1278 1487 890 1244 1338 320 519 798 108 984 766 620 1040 1211 790 416 933 133 43 2 1302 1609 297 1214 1559 1487 899 198 94 1463 1072 1503 433 37 137 1547 1399 1147 1305 1280 463 821 1134 955 1068 849 659 584 961 1328 1307 288 164 1082 643 1275 1105 1443 414 613 204 660 1249 368 16 1479 903 907 1125 1155 1067 196 1417 76 1557 692 743 427 1391 295 552 962 1151 1457 584 956 1367 157 258 1317 1267 934 1306 1079 1543 890 480 943 1159 1184 1385 994 259 9 51 951 1180 1191 888 337 53 200 911 1398 1189 453 995 1304 716 1300 76 1087 30 655 223 1174 522 410 1433 223 811 435 1453 415 1589 862 157 1237 